data/solutions/recovery/wellformed/moderate/flexible/wellformed_moderate_instance76/10.sol
Elapsed time: 0.06
Upper bound: 1872.0
Planning weighted value: 118026.0
C[0]=1872.0
C[1]=1866.0
C[2]=1851.0
C[3]=1851.0
C[4]=1841.0
C[5]=0.0
y[0]=4
y[1]=2
y[2]=3
y[3]=4
y[4]=2
y[5]=0
y[6]=2
y[7]=3
y[8]=4
y[9]=1
y[10]=2
y[11]=0
y[12]=3
y[13]=0
y[14]=2
y[15]=4
y[16]=1
y[17]=0
y[18]=4
y[19]=1
