data/solutions/recovery/wellformed/moderate/flexible/wellformed_moderate_instance76/10.log

Log started (V12.6.3.0) Fri Apr 20 20:56:40 2018

New value for default parallel thread count: 1

Problem '/tmp/tmp1bLWn5.pyomo.lp' read.
Read time = 0.00 sec. (0.03 ticks)

Problem name         : /tmp/tmp1bLWn5.pyomo.lp
Objective sense      : Minimize
Variables            :     128  [Nneg: 1,  Binary: 120,  General Integer: 7]
Objective nonzeros   :       1
Linear constraints   :      54  [Less: 26,  Equal: 28]
  Nonzeros           :    1873
  RHS nonzeros       :      41

Variables            : Min LB: 0.000000         Max UB: 1.000000       
Objective nonzeros   : Min   : 1.000000         Max   : 1.000000       
Linear constraints   :
  Nonzeros           : Min   : 1.000000         Max   : 971.0000       
  RHS nonzeros       : Min   : 1.000000         Max   : 2.000000       
Tried aggregator 2 times.
MIP Presolve eliminated 23 rows and 26 columns.
Aggregator did 6 substitutions.
Reduced MIP has 25 rows, 96 columns, and 255 nonzeros.
Reduced MIP has 95 binaries, 1 generals, 0 SOSs, and 0 indicators.
Presolve time = 0.00 sec. (0.72 ticks)
Found incumbent of value 9281.000000 after 0.00 sec. (0.88 ticks)
Probing time = 0.00 sec. (0.08 ticks)
Cover probing fixed 0 vars, tightened 3 bounds.
Tried aggregator 1 time.
Reduced MIP has 25 rows, 96 columns, and 255 nonzeros.
Reduced MIP has 95 binaries, 1 generals, 0 SOSs, and 0 indicators.
Presolve time = 0.00 sec. (0.17 ticks)
Probing time = 0.00 sec. (0.06 ticks)
Clique table members: 19.
MIP emphasis: balance optimality and feasibility.
MIP search method: dynamic search.
Parallel mode: none, using 1 thread.
Root relaxation solution time = 0.00 sec. (0.08 ticks)

        Nodes                                         Cuts/
   Node  Left     Objective  IInf  Best Integer    Best Bound    ItCnt     Gap

*     0+    0                         9281.0000      971.0000            89.54%
      0     0     1856.2000     8     9281.0000     1856.2000        9   80.00%
*     0+    0                         2147.0000     1856.2000            13.54%
      0     0     1857.0000    13     2147.0000      Fract: 4       24   13.51%
*     0+    0                         1974.0000     1857.0000             5.93%
      0     0     1857.0000    13     1974.0000      Cuts: 13       38    5.93%
      0     0     1857.0000    14     1974.0000      Cuts: 10       51    5.93%
*     0+    0                         1971.0000     1857.0000             5.78%
*     0+    0                         1924.0000     1857.0000             3.48%
      0     2     1857.0000     8     1924.0000     1857.0000       51    3.48%
Elapsed time = 0.01 sec. (6.72 ticks, tree = 0.01 MB, solutions = 5)
*    10+    8                         1896.0000     1857.0000             2.06%
*   179    53      integral     0     1872.0000     1857.0000      834    0.80%

Flow cuts applied:  1
Mixed integer rounding cuts applied:  4
Gomory fractional cuts applied:  2

Root node processing (before b&c):
  Real time             =    0.01 sec. (6.71 ticks)
Sequential b&c:
  Real time             =    0.03 sec. (23.93 ticks)
                          ------------
Total (root+branch&cut) =    0.04 sec. (30.64 ticks)

Solution pool: 7 solutions saved.

MIP - Integer optimal solution:  Objective =  1.8720000000e+03
Solution time =    0.04 sec.  Iterations = 2801  Nodes = 691
Deterministic time = 30.64 ticks  (704.20 ticks/sec)


Incumbent solution written to file '/tmp/tmpIIxSLl.cplex.sol'.
